\ENCODING=ISO-8859-1
\Problem name: IloCplex

Maximize
 obj1: z#39
Subject To
 c1:  q_0#0 <= 2
 c2:  q_1#1 <= 6
 c3:  q_2#2 <= 3
 c4:  x_02#3 + x_01#4 >= 1
 c5:  - 300 hap_1_00#5 + ap_00#6 <= 0
 c6:  x_02#3 + x_01#4 + 2 hap_1_00#5 <= 3
 c7:  - x_01#4 - x_00#7 >= -1
 c8:  - 300 han_2_00#8 + an_00#9 <= 0
 c9:  - x_01#4 - x_00#7 + 2 han_2_00#8 <= 1
 c10: x_02#10 + x_01#11 >= 1
 c11: - 300 hap_1_10#12 + ap_10#13 <= 0
 c12: x_02#10 + x_01#11 + 2 hap_1_10#12 <= 3
 c13: - x_01#11 - x_00#14 >= -1
 c14: - 300 han_2_10#15 + an_10#16 <= 0
 c15: - x_01#11 - x_00#14 + 2 han_2_10#15 <= 1
 c16: x_02#17 + x_01#18 >= 1
 c17: - 300 hap_1_20#19 + ap_20#20 <= 0
 c18: x_02#17 + x_01#18 + 2 hap_1_20#19 <= 3
 c19: - x_01#18 - x_00#21 >= -1
 c20: - 300 han_2_20#22 + an_20#23 <= 0
 c21: - x_01#18 - x_00#21 + 2 han_2_20#22 <= 1
 c22: - x_02#3 + x_00#7 >= 0
 c23: - 300 hb_001#24 + b_001#25 <= 0
 c24: - x_02#3 + x_00#7 + 2 hb_001#24 <= 2
 c25: - x_02#10 + x_00#14 >= 0
 c26: - 300 hb_101#26 + b_101#27 <= 0
 c27: - x_02#10 + x_00#14 + 2 hb_101#26 <= 2
 c28: - x_02#17 + x_00#21 >= 0
 c29: - 300 hb_201#28 + b_201#29 <= 0
 c30: - x_02#17 + x_00#21 + 2 hb_201#28 <= 2
 c31: - q_0#0 - an_00#9 + b_001#25 <= 0.0750000000000113
 c32: x_00#7 - 2 hdu_000#30 <= 0
 c33: q_0#0 + an_00#9 - b_001#25 + 300 hdu_000#30 <= 299.925
 c34: - q_1#1 + ap_00#6 - an_00#9 <= 0
 c35: x_01#4 - 2 hdu_001#31 <= 0
 c36: q_1#1 - ap_00#6 + an_00#9 + 300 hdu_001#31 <= 300
 c37: - q_2#2 + ap_00#6 - b_001#25 <= 0
 c38: x_02#3 - 2 hdu_002#32 <= 0
 c39: q_2#2 - ap_00#6 + b_001#25 + 300 hdu_002#32 <= 300
 c40: - q_0#0 - an_10#16 + b_101#27 <= 0
 c41: x_00#14 - 2 hdu_100#33 <= 0
 c42: q_0#0 + an_10#16 - b_101#27 + 300 hdu_100#33 <= 300
 c43: - q_1#1 + ap_10#13 - an_10#16 <= 0.85
 c44: x_01#11 - 2 hdu_101#34 <= 0
 c45: q_1#1 - ap_10#13 + an_10#16 + 300 hdu_101#34 <= 299.15
 c46: - q_2#2 + ap_10#13 - b_101#27 <= 0
 c47: x_02#10 - 2 hdu_102#35 <= 0
 c48: q_2#2 - ap_10#13 + b_101#27 + 300 hdu_102#35 <= 300
 c49: - q_0#0 - an_20#23 + b_201#29 <= 1
 c50: x_00#21 - 2 hdu_200#36 <= 0
 c51: q_0#0 + an_20#23 - b_201#29 + 300 hdu_200#36 <= 299
 c52: - q_1#1 + ap_20#20 - an_20#23 <= 0
 c53: x_01#18 - 2 hdu_201#37 <= 0
 c54: q_1#1 - ap_20#20 + an_20#23 + 300 hdu_201#37 <= 300
 c55: - q_2#2 + ap_20#20 - b_201#29 <= 4
 c56: x_02#17 - 2 hdu_202#38 <= 0
 c57: q_2#2 - ap_20#20 + b_201#29 + 300 hdu_202#38 <= 296
 c58: x_02#3 + x_01#4 - ap_00#6 + 1.07500000000001 x_00#7 + an_00#9 + z#39 <= 0
 c59: x_02#10 + 1.85 x_01#11 - ap_10#13 + x_00#14 + an_10#16 + z#39 <= 0
 c60: 5 x_02#17 + x_01#18 - ap_20#20 + 2 x_00#21 + an_20#23 + z#39 <= 0
Bounds
 0 <= x_02#3 <= 1
 0 <= x_01#4 <= 1
 0 <= hap_1_00#5 <= 1
 0 <= x_00#7 <= 1
 0 <= han_2_00#8 <= 1
 0 <= x_02#10 <= 1
 0 <= x_01#11 <= 1
 0 <= hap_1_10#12 <= 1
 0 <= x_00#14 <= 1
 0 <= han_2_10#15 <= 1
 0 <= x_02#17 <= 1
 0 <= x_01#18 <= 1
 0 <= hap_1_20#19 <= 1
 0 <= x_00#21 <= 1
 0 <= han_2_20#22 <= 1
 0 <= hb_001#24 <= 1
 0 <= hb_101#26 <= 1
 0 <= hb_201#28 <= 1
 0 <= hdu_000#30 <= 1
 0 <= hdu_001#31 <= 1
 0 <= hdu_002#32 <= 1
 0 <= hdu_100#33 <= 1
 0 <= hdu_101#34 <= 1
 0 <= hdu_102#35 <= 1
 0 <= hdu_200#36 <= 1
 0 <= hdu_201#37 <= 1
 0 <= hdu_202#38 <= 1
      z#39 Free
Binaries
 hap_1_00#5  han_2_00#8  hap_1_10#12  han_2_10#15  hap_1_20#19  han_2_20#22 
 hb_001#24  hb_101#26  hb_201#28  hdu_000#30  hdu_001#31  hdu_002#32 
 hdu_100#33  hdu_101#34  hdu_102#35  hdu_200#36  hdu_201#37  hdu_202#38 
End
